============================[ Problem Statistics ]=============================|                                                                             ||  Number of variables:          4242                                         ||  Number of clauses:            9769                                         ||  Parse time:                   0.17 s                                       ||                                                                             |============================[ Search Statistics ]==============================| Conflicts |          ORIGINAL         |          LEARNT          | Progress ||           |    Vars  Clauses Literals |    Limit  Clauses Lit/Cl |          |===============================================================================|       100 |    1591     5974   252035 |     2190      100     53 | 62.501 % |===============================================================================restarts              : 2conflicts             : 103            (344 /sec)decisions             : 275            (0.00 % random) (920 /sec)propagations          : 9854           (32957 /sec)conflict literals     : 5529           (95.96 % deleted)CPU time              : 0.299 sSATISFIABLE